c
c start with comments
c
p cnf 20 34
-15 -8 -19 -11 17 0
11 17 6 0
15 -18 -14 -11 13 0
-4 -18 -17 9 17 12 0
-6 -3 20 -13 0
16 8 12 8 16 0
14 -3 8 13 -12 18 0
17 2 -15 19 10 0
-20 -5 0
6 -6 9 0
19 7 -15 -13 0
12 16 -20 20 -1 0
4 -15 17 -20 0
19 5 -8 -13 0
-5 -14 -6 17 0
3 -2 12 -1 0
14 19 0
19 2 -2 -1 0
-9 -5 5 19 0
9 4 -11 18 0
15 -11 17 0
6 -2 15 -7 0
-9 -5 4 0
7 6 -15 0
-10 11 9 0
2 -19 8 -11 0
-10 -11 0
11 -7 7 0
-17 -19 -7 0
-11 2 0
4 17 -14 -16 15 0
14 16 0
-2 -16 13 9 -7 0
-14 -12 -2 -19 0